711.88
0 63 32 44 42 26 51 52 22 74 37 49 13 66 2 40 58 19 64 17 15 56 46 65 47 29 28 39 54 4 7 30 53 34 48 20 43 71 38 67 31 6 70 61 60 23 3 5 11 25 12 72 69 50 73 18 41 45 62 57 59 21 14 36 55 16 9 35 10 8 24 68 27 1 33
